Traveling Salesman Problem/TSP_generados/Aleatorio1620391093_13.tsp
NAME: Aleatorio1620391093_13.tsp
COMMENT: Randomly generated scenario
TYPE: TSP
DIMENSION: 13
EDGE_WEIGHT_TYPE: ATT
NODE_COORD_SECTION
1 42.47 31.08
2 1.56 43.29
3 49.81 40.88
4 7.55 15.75
5 2.19 19.61
6 13.36 41.64
7 45.38 41.45
8 45.25 38.3
9 24.95 25.07
10 22.68 25.55
11 8.19 47.8
12 33.02 27.03
13 20.19 3.55
