Traveling Salesman Problem/TSP_generados/Aleatorio1620391093_13.opt.tour
NAME: Aleatorio1620391093_13.opt.tour
COMMENT: Optimal solution for Aleatorio1620391093_13 (156.43112768295987)
TYPE: TOUR
DIMENSION: 13
TOUR_SECTION
1 8 3 7 6 11 2 5 4 13 10 9 12
-1
EOF
